InboundTrucks  = 12;
OutboundTrucks = 8;
InboundDoors   = 4;
OutboundDoors  = 4;
ReleaseTime    = [0,11,13,40,40,14,25,25,7,6,18,14];
UnloadTime     = [43,31,32,35,38,8,30,30,44,5,23,19];
LoadTime       = [9,26,26,8,21,20,7,23];
TransferTime   = [| 0,0,12,17,0,0,0,14 | 10,0,0,0,0,13,0,11 | 38,17,30,0,37,0,0,0 | 25,0,41,0,10,31,0,0 | 42,0,0,0,0,22,0,0 | 0,0,21,0,0,0,0,0 | 0,35,0,0,0,0,0,0 | 0,46,0,41,46,13,0,0 | 0,0,0,0,0,35,0,16 | 0,0,0,21,0,0,0,0 | 35,43,0,0,0,34,0,23 | 0,45,12,0,20,0,20,48 |];
